000 000 000 002 003 004 001 001 002 002 001 002 003 002 002 004 009 015 016 013 007 004 006 010 007 007 011 009 007 013 009
000 000 000 002 002 003 002 001 002 003 001 001 001 003 003 001 003 019 018 015 010 006 006 007 006 005 005 007 009 011 012
000 000 001 001 002 001 002 002 002 001 001 001 002 003 002 001 003 006 018 009 012 007 005 006 005 005 005 009 011 012 012
000 000 001 002 001 001 002 002 001 001 000 001 002 002 001 001 001 004 009 009 010 006 008 007 006 007 004 007 007 009 012
000 001 001 001 000 000 001 001 001 001 001 001 002 001 001 001 001 002 004 008 017 015 014 012 006 006 005 005 007 011 012
000 001 001 000 001 001 001 002 002 001 002 001 001 002 002 001 001 001 002 003 009 016 017 016 006 009 007 006 010 012 015
002 001 001 000 001 001 002 001 002 001 001 001 001 000 001 001 001 002 003 003 008 028 013 015 006 009 010 008 010 013 009
003 001 001 000 001 001 002 002 001 001 001 001 001 001 001 001 001 002 004 006 009 014 017 009 013 010 010 007 011 009 007
002 002 001 001 002 002 002 002 001 001 001 001 000 001 001 001 002 003 004 007 015 029 013 010 020 009 008 006 007 007 005
002 002 001 002 002 002 002 002 002 001 000 002 000 001 001 001 002 003 004 006 014 026 015 014 022 008 013 007 006 005 005
002 002 002 002 002 002 002 002 002 001 002 003 001 001 001 002 002 003 004 007 013 025 016 024 037 016 016 006 007 006 005
001 002 001 002 002 002 002 004 003 001 002 002 002 002 002 002 003 002 006 008 013 024 025 028 045 013 018 008 008 008 009
000 001 001 002 003 003 004 004 003 002 002 002 001 002 002 002 004 003 004 013 011 012 023 031 046 035 032 031 011 015 014
001 002 003 007 004 003 003 005 004 004 001 002 001 003 006 008 011 007 003 018 011 015 021 028 031 035 037 015 015 014 013
003 003 004 012 008 005 002 003 003 003 001 003 001 003 007 025 034 011 005 015 016 017 016 020 023 018 029 018 011 012 020
005 006 012 012 009 005 003 003 003 002 003 005 005 009 020 033 052 015 008 014 019 014 021 019 016 011 017 015 011 015 056
015 013 013 010 012 003 003 004 004 002 003 003 005 010 052 043 047 026 021 023 031 039 018 010 011 010 009 010 013 017 042
006 012 017 009 007 005 002 006 009 008 004 007 007 006 075 055 057 046 061 042 035 033 011 029 014 012 008 008 014 025 058
005 023 012 007 008 004 002 006 007 003 008 005 004 003 042 048 062 055 091 046 056 054 030 034 023 014 013 010 013 027 071
009 031 026 011 011 006 004 004 004 002 005 006 004 002 011 025 030 040 046 021 021 028 050 085 064 028 018 011 012 022 056
004 016 019 017 011 005 005 004 004 002 007 012 013 003 006 020 030 030 039 016 009 033 040 035 029 018 021 016 030 017 046
003 006 005 007 005 003 003 004 004 003 007 019 018 005 007 014 012 017 015 009 005 010 017 020 024 015 018 025 031 025 021
001 002 001 002 002 002 002 004 002 004 011 027 025 012 013 013 012 013 014 010 006 007 012 014 014 012 018 022 032 026 019
000 001 002 001 001 001 001 002 002 003 008 033 029 014 014 011 008 007 009 008 006 004 005 008 007 010 016 021 033 028 018
000 001 002 001 002 001 001 001 001 003 007 024 030 014 007 011 006 005 004 004 003 002 003 006 007 010 013 026 024 017 012
001 000 001 001 002 001 001 000 001 003 004 006 007 010 010 009 008 004 002 002 002 001 001 -99 -99 -99 -99 -99 017 021 012
001 001 001 001 002 001 002 001 001 002 003 004 003 007 010 007 005 003 001 002 002 001 001 -99 -99 -99 -99 011 022 021 021
001 001 001 002 002 002 003 002 001 003 005 007 015 007 008 005 004 001 001 001 001 001 001 002 -99 -99 007 013 025 018 014
001 002 002 002 004 007 004 004 002 004 007 016 021 017 007 011 003 002 001 000 000 000 002 002 002 004 006 016 021 012 009
001 002 001 002 006 007 008 005 004 006 010 019 018 012 019 010 004 003 001 000 001 000 002 002 002 004 004 014 015 010 008
001 001 002 002 003 005 005 003 004 007 009 013 023 030 025 016 006 005 003 001 001 000 001 002 002 003 002 010 011 010 008
001 002 002 001 002 002 004 003 004 006 007 011 013 010 005 003 007 007 004 002 002 001 001 001 002 002 001 005 009 011 009
001 001 001 000 001 001 002 002 002 005 009 011 006 005 002 002 006 009 006 003 002 001 001 000 002 001 -99 002 005 007 006
001 001 000 000 000 001 002 004 007 009 018 011 007 004 001 001 005 008 008 006 003 001 001 000 000 003 000 001 003 005 005
001 001 000 000 001 000 003 003 002 007 017 012 015 006 004 007 005 006 006 004 001 002 001 000 000 002 000 000 002 003 002
001 001 000 000 001 001 004 002 003 006 016 025 016 017 010 013 012 006 007 007 005 002 000 000 000 000 000 000 001 001 001
001 001 001 001 001 003 002 002 003 005 013 021 023 037 040 061 019 013 011 021 011 003 000 000 000 000 000 000 000 000 000
001 001 001 001 001 004 001 002 003 007 016 050 065 041 061 068 050 029 028 048 009 007 001 000 000 000 000 000 000 000 000
003 001 001 001 001 001 001 003 003 011 021 031 031 027 051 085 061 071 042 027 014 008 004 002 001 000 001 001 000 001 000
006 011 003 001 002 004 006 004 010 014 033 023 027 021 043 054 053 048 031 021 015 007 010 003 003 001 003 001 000 001 001
012 016 004 003 002 006 024 009 017 023 023 016 027 013 026 040 039 025 019 018 009 005 006 004 011 004 002 001 001 003 004
006 006 006 003 001 004 013 009 037 026 033 036 026 008 009 009 015 013 010 010 007 004 003 003 009 003 001 001 003 011 006
002 005 005 003 002 004 012 007 010 024 040 027 022 008 004 002 002 005 004 004 004 003 002 002 004 002 001 000 004 015 006
002 004 005 003 001 002 004 003 008 010 016 024 013 005 002 001 001 004 004 011 014 003 001 001 001 003 000 000 007 009 005
001 004 004 003 002 001 000 001 006 010 011 012 011 008 003 001 001 002 008 016 030 005 002 000 001 001 000 000 006 007 003
001 001 002 003 002 000 001 001 002 005 008 012 008 011 003 001 000 001 005 013 016 010 002 001 001 000 000 000 006 -99 001
001 000 001 002 002 001 002 001 002 002 002 004 006 006 003 001 000 001 001 004 013 009 004 003 001 000 000 000 -99 000 000
001 000 001 004 001 001 002 001 002 002 003 006 004 005 003 001 000 001 000 000 003 002 004 010 001 000 001 000 000 000 000
000 000 001 000 000 000 001 001 003 003 003 005 006 006 002 001 001 001 000 000 000 000 005 003 001 001 001 000 000 -99 000
000 000 000 000 000 000 000 002 003 003 003 006 006 004 002 001 002 003 000 000 000 000 003 002 001 001 002 000 000 -99 -99
000 000 000 000 000 000 000 001 002 001 002 005 006 003 003 001 002 004 000 000 000 000 000 001 000 001 001 000 -99 -99 -99
000 000 000 000 000 000 000 000 001 001 000 002 003 002 002 003 005 003 000 000 000 000 000 000 000 001 000 -99 -99 -99 -99
-99 000 000 000 000 000 000 000 000 000 000 000 001 001 004 005 004 001 001 000 000 000 000 -99 000 -99 -99 -99 -99 -99 -99
-99 000 000 000 000 000 000 000 000 000 000 000 002 001 003 003 002 001 001 000 000 000 -99 -99 -99 -99 -99 -99 -99 -99 -99
000 000 000 000 000 000 000 000 000 000 000 000 000 000 001 002 002 002 001 000 000 -99 -99 -99 -99 -99 -99 -99 -99 -99 -99
